\ Model coloration
\ LP format - for model browsing. Use MPS format to capture full model detail.
Minimize
  x,0,0, + x,0,1, + x,0,2, + x,0,3, + x,0,4, + x,1,0, + x,1,1, + x,1,2,
   + x,1,3, + x,1,4, + x,2,0, + x,2,1, + x,2,2, + x,2,3, + x,2,4, + x,3,0,
   + x,3,1, + x,3,2, + x,3,3, + x,3,4,
Subject To
 C_0/mutuelle/L_0: y,0,0,0, + y,0,1,0, + y,0,2,0, + y,0,3,0, + y,0,4,0,
   = 1
 C_1/mutuelle/L_2: y,2,0,0, + y,2,1,0, + y,2,2,0, + y,2,3,0, + y,2,4,0,
   = 1
 C_2/mutuelle/L_2: y,2,0,1, + y,2,1,1, + y,2,2,1, + y,2,3,1, + y,2,4,1,
   = 1
 C_3/mutuelle/L_2: y,2,0,2, + y,2,1,2, + y,2,2,2, + y,2,3,2, + y,2,4,2,
   = 1
 C_4/mutuelle/L_3: y,3,0,0, + y,3,1,0, + y,3,2,0, + y,3,3,0, + y,3,4,0,
   = 1
 C_5/Q10/L_0: - x,0,0, - x,0,1, - x,0,2, + 3 y,0,0,0, <= 0
 C_6/ordre/C_0: 2 z,0,0,0, + z,0,0,1, + z,1,0,1, <= 2
 C_7/Q10/C_0: - x,0,0, + z,0,0,0, <= 0
 C_8/Q10/C_0: - x,0,0, + z,0,0,1, <= 0
 C_9/Q10/L_0: - x,0,1, - x,0,2, - x,0,3, + 3 y,0,1,0, <= 0
 C_10/Q10/C_1: - x,0,1, + z,0,1,0, <= 0
 C_11/Q10/L_0: - x,0,2, - x,0,3, - x,0,4, + 3 y,0,2,0, <= 0
 C_12/ordre/C_2: 2 z,0,2,0, + z,0,2,1, + z,1,2,1, <= 2
 C_13/Q10/C_2: - x,0,2, + z,0,2,0, <= 0
 C_14/Q10/C_2: - x,0,2, - x,1,2, + 2 z,0,2,1, <= 0
 C_15/Q10/L_0: - x,0,3, - x,0,4, + 3 y,0,3,0, <= 0
 C_16/Q10/C_3: - x,0,3, + z,0,3,0, <= 0
 C_17/Q10/L_0: - x,0,4, + 3 y,0,4,0, <= 0
 C_18/Q10/C_4: - x,0,4, - x,1,4, + 2 z,0,4,0, <= 0
 C_19/ordre/C_0: z,0,0,1, + 3 z,1,0,0, + z,1,0,1, + z,2,0,1, <= 3
 C_20/Q10/C_0: - x,1,0, + z,1,0,0, <= 0
 C_21/Q10/C_0: - x,1,0, + z,1,0,1, <= 0
 C_22/Q10/C_1: - x,1,1, + z,1,1,0, <= 0
 C_23/ordre/C_2: z,0,2,1, + 3 z,1,2,0, + z,1,2,1, + z,2,2,1, <= 3
 C_24/Q10/C_2: - x,1,2, + z,1,2,0, <= 0
 C_25/Q10/C_2: - x,1,2, - x,2,2, + 2 z,1,2,1, <= 0
 C_26/Q10/C_3: - x,1,3, + z,1,3,0, <= 0
 C_27/Q10/C_4: - x,1,4, - x,2,4, + 2 z,1,4,0, <= 0
 C_28/ordre/L_2: 4 y,2,0,0, + y,2,0,1, + y,2,0,2, + y,2,1,1, + y,2,1,2,
   <= 4
 C_29/Q10/L_2: - x,2,0, + y,2,0,0, <= 0
 C_30/ordre/L_2: 2 y,2,0,1, + y,2,0,2, + y,2,1,2, <= 2
 C_31/Q10/L_2: - x,2,0, + y,2,0,1, <= 0
 C_32/Q10/L_2: - x,2,0, + y,2,0,2, <= 0
 C_33/ordre/C_0: z,0,0,1, + z,1,0,1, + 4 z,2,0,0, + z,2,0,1, + z,3,0,1,
   <= 4
 C_34/Q10/C_0: - x,2,0, + z,2,0,0, <= 0
 C_35/Q10/C_0: - x,2,0, + z,2,0,1, <= 0
 C_36/ordre/L_2: y,2,0,1, + y,2,0,2, + 6 y,2,1,0, + y,2,1,1, + y,2,1,2,
   + y,2,2,1, + y,2,2,2, <= 6
 C_37/Q10/L_2: - x,2,1, + y,2,1,0, <= 0
 C_38/ordre/L_2: y,2,0,2, + 3 y,2,1,1, + y,2,1,2, + y,2,2,2, <= 3
 C_39/Q10/L_2: - x,2,1, + y,2,1,1, <= 0
 C_40/Q10/L_2: - x,2,1, + y,2,1,2, <= 0
 C_41/Q10/C_1: - x,2,1, + z,2,1,0, <= 0
 C_42/ordre/L_2: y,2,0,1, + y,2,0,2, + y,2,1,1, + y,2,1,2, + 8 y,2,2,0,
   + y,2,2,1, + y,2,2,2, + y,2,3,1, + y,2,3,2, <= 8
 C_43/Q10/L_2: - x,2,2, + y,2,2,0, <= 0
 C_44/ordre/L_2: y,2,0,2, + y,2,1,2, + 4 y,2,2,1, + y,2,2,2, + y,2,3,2,
   <= 4
 C_45/Q10/L_2: - x,2,2, + y,2,2,1, <= 0
 C_46/Q10/L_2: - x,2,2, + y,2,2,2, <= 0
 C_47/ordre/C_2: z,0,2,1, + z,1,2,1, + 4 z,2,2,0, + z,2,2,1, + z,3,2,1,
   <= 4
 C_48/Q10/C_2: - x,2,2, + z,2,2,0, <= 0
 C_49/Q10/C_2: - x,2,2, - x,3,2, + 2 z,2,2,1, <= 0
 C_50/ordre/L_2: y,2,0,1, + y,2,0,2, + y,2,1,1, + y,2,1,2, + y,2,2,1,
   + y,2,2,2, + 10 y,2,3,0, + y,2,3,1, + y,2,3,2, + y,2,4,1, + y,2,4,2,
   <= 10
 C_51/Q10/L_2: - x,2,3, + y,2,3,0, <= 0
 C_52/ordre/L_2: y,2,0,2, + y,2,1,2, + y,2,2,2, + 5 y,2,3,1, + y,2,3,2,
   + y,2,4,2, <= 5
 C_53/Q10/L_2: - x,2,3, + y,2,3,1, <= 0
 C_54/Q10/L_2: - x,2,3, + y,2,3,2, <= 0
 C_55/Q10/C_3: - x,2,3, + z,2,3,0, <= 0
 C_56/ordre/L_2: y,2,0,1, + y,2,0,2, + y,2,1,1, + y,2,1,2, + y,2,2,1,
   + y,2,2,2, + y,2,3,1, + y,2,3,2, + 10 y,2,4,0, + y,2,4,1, + y,2,4,2,
   <= 10
 C_57/Q10/L_2: - x,2,4, + y,2,4,0, <= 0
 C_58/ordre/L_2: y,2,0,2, + y,2,1,2, + y,2,2,2, + y,2,3,2, + 5 y,2,4,1,
   + y,2,4,2, <= 5
 C_59/Q10/L_2: - x,2,4, + y,2,4,1, <= 0
 C_60/Q10/L_2: - x,2,4, + y,2,4,2, <= 0
 C_61/Q10/C_4: - x,2,4, - x,3,4, + 2 z,2,4,0, <= 0
 C_62/Q10/L_3: - x,3,0, - x,3,1, - x,3,2, + 3 y,3,0,0, <= 0
 C_63/ordre/C_0: z,0,0,1, + z,1,0,1, + z,2,0,1, + 4 z,3,0,0, + z,3,0,1,
   <= 4
 C_64/Q10/C_0: - x,3,0, + z,3,0,0, <= 0
 C_65/Q10/C_0: - x,3,0, + z,3,0,1, <= 0
 C_66/Q10/L_3: - x,3,1, - x,3,2, - x,3,3, + 3 y,3,1,0, <= 0
 C_67/Q10/C_1: - x,3,1, + z,3,1,0, <= 0
 C_68/Q10/L_3: - x,3,2, - x,3,3, - x,3,4, + 3 y,3,2,0, <= 0
 C_69/ordre/C_2: z,0,2,1, + z,1,2,1, + z,2,2,1, + 4 z,3,2,0, + z,3,2,1,
   <= 4
 C_70/Q10/C_2: - x,3,2, + z,3,2,0, <= 0
 C_71/Q10/C_2: - x,3,2, + 2 z,3,2,1, <= 0
 C_72/Q10/L_3: - x,3,3, - x,3,4, + 3 y,3,3,0, <= 0
 C_73/Q10/C_3: - x,3,3, + z,3,3,0, <= 0
 C_74/Q10/L_3: - x,3,4, + 3 y,3,4,0, <= 0
 C_75/Q10/C_4: - x,3,4, + 2 z,3,4,0, <= 0
 C_76/mutuelle/C_0: z,0,0,0, + z,1,0,0, + z,2,0,0, + z,3,0,0, = 1
 C_77/mutuelle/C_0: z,0,0,1, + z,1,0,1, + z,2,0,1, + z,3,0,1, = 1
 C_78/mutuelle/C_1: z,0,1,0, + z,1,1,0, + z,2,1,0, + z,3,1,0, = 1
 C_79/mutuelle/C_2: z,0,2,0, + z,1,2,0, + z,2,2,0, + z,3,2,0, = 1
 C_80/mutuelle/C_2: z,0,2,1, + z,1,2,1, + z,2,2,1, + z,3,2,1, = 1
 C_81/mutuelle/C_3: z,0,3,0, + z,1,3,0, + z,2,3,0, + z,3,3,0, = 1
 C_82/mutuelle/C_4: z,0,4,0, + z,1,4,0, + z,2,4,0, + z,3,4,0, = 1
Bounds
Binaries
 x,0,0, x,0,1, x,0,2, x,0,3, x,0,4, x,1,0, x,1,1, x,1,2, x,1,3, x,1,4,
 x,2,0, x,2,1, x,2,2, x,2,3, x,2,4, x,3,0, x,3,1, x,3,2, x,3,3, x,3,4,
 y,0,0,0, y,0,1,0, y,0,2,0, y,0,3,0, y,0,4,0, y,2,0,0, y,2,0,1, y,2,0,2,
 y,2,1,0, y,2,1,1, y,2,1,2, y,2,2,0, y,2,2,1, y,2,2,2, y,2,3,0, y,2,3,1,
 y,2,3,2, y,2,4,0, y,2,4,1, y,2,4,2, y,3,0,0, y,3,1,0, y,3,2,0, y,3,3,0,
 y,3,4,0, z,0,0,0, z,0,0,1, z,1,0,0, z,1,0,1, z,2,0,0, z,2,0,1, z,3,0,0,
 z,3,0,1, z,0,1,0, z,1,1,0, z,2,1,0, z,3,1,0, z,0,2,0, z,0,2,1, z,1,2,0,
 z,1,2,1, z,2,2,0, z,2,2,1, z,3,2,0, z,3,2,1, z,0,3,0, z,1,3,0, z,2,3,0,
 z,3,3,0, z,0,4,0, z,1,4,0, z,2,4,0, z,3,4,0,
End
